16 32
1 2 4
1 5 5
2 3 1
2 6 5
3 4 5
3 7 3
4 8 3
5 6 4
5 9 5
6 7 1
6 10 2
7 8 1
7 11 5
8 12 1
9 10 2
9 13 5
10 11 3
10 14 4
11 12 4
11 15 3
12 16 3
13 14 3
14 15 5
15 16 5
1 13 5
2 14 5
3 15 4
4 16 3
1 4 2
5 8 5
9 12 4
13 16 2
